p sp 300 768
a 1 2 100
a 1 60 17
a 1 119 39
a 1 240 45
a 2 3 100
a 2 84 28
a 2 110 26
a 2 144 31
a 3 4 100
a 3 183 1
a 3 216 7
a 3 275 32
a 4 5 100
a 5 6 100
a 6 7 100
a 6 39 6
a 6 48 20
a 6 300 11
a 7 8 100
a 7 89 32
a 7 252 31
a 8 9 100
a 8 88 38
a 8 149 48
a 9 10 100
a 9 231 20
a 9 268 14
a 10 11 100
a 10 243 46
a 11 12 100
a 12 13 100
a 12 58 33
a 12 158 5
a 12 268 18
a 13 14 100
a 14 15 100
a 15 16 100
a 15 19 12
a 16 17 100
a 16 80 27
a 16 113 38
a 16 271 42
a 17 12 22
a 17 18 100
a 17 201 27
a 18 19 100
a 18 86 37
a 18 192 18
a 18 280 36
a 19 20 100
a 19 50 22
a 19 265 41
a 20 21 100
a 20 69 44
a 21 22 100
a 21 207 47
a 22 23 100
a 22 132 46
a 22 198 43
a 23 24 100
a 23 245 34
a 24 25 100
a 24 45 44
a 24 145 11
a 24 286 46
a 25 26 100
a 25 85 39
a 25 130 31
a 26 27 100
a 26 135 12
a 27 28 100
a 28 29 100
a 28 167 21
a 29 30 100
a 30 31 7
a 30 149 38
a 30 296 46
a 31 32 100
a 31 111 15
a 31 115 37
a 32 33 100
a 33 34 100
a 33 74 8
a 33 220 7
a 34 16 26
a 34 23 47
a 34 35 100
a 34 50 37
a 35 36 100
a 36 37 100
a 37 38 100
a 37 220 33
a 37 228 5
a 37 291 32
a 38 39 100
a 39 24 4
a 39 40 100
a 39 62 23
a 40 16 8
a 40 41 100
a 40 172 38
a 40 300 11
a 41 17 43
a 41 22 1
a 41 38 49
a 41 42 100
a 42 43 100
a 42 49 20
a 42 179 9
a 42 274 41
a 43 44 100
a 43 166 29
a 44 45 100
a 44 207 5
a 45 46 100
a 45 228 15
a 45 298 29
a 46 11 37
a 46 47 100
a 46 225 31
a 46 250 46
a 47 48 100
a 47 224 45
a 47 250 48
a 47 296 33
a 48 49 100
a 48 50 41
a 49 24 32
a 49 50 100
a 49 69 35
a 49 75 31
a 50 51 100
a 50 99 12
a 51 52 100
a 52 53 100
a 52 68 32
a 52 154 48
a 53 54 100
a 53 164 36
a 54 55 100
a 55 56 100
a 55 178 47
a 56 57 100
a 56 101 42
a 57 1 17
a 57 58 100
a 58 59 100
a 58 203 24
a 58 250 12
a 59 60 100
a 59 92 35
a 60 61 100
a 61 13 21
a 61 62 100
a 61 209 34
a 62 63 100
a 62 105 10
a 62 183 31
a 63 61 46
a 63 64 100
a 63 99 37
a 64 65 100
a 64 160 5
a 64 196 13
a 65 66 100
a 65 264 34
a 66 67 100
a 67 68 100
a 68 69 100
a 68 174 30
a 69 70 100
a 69 87 39
a 70 57 49
a 70 71 100
a 71 72 100
a 72 73 100
a 72 100 10
a 72 131 47
a 72 276 38
a 73 37 34
a 73 74 100
a 73 116 38
a 74 62 39
a 74 75 100
a 74 165 15
a 74 275 43
a 75 49 14
a 75 76 100
a 75 150 29
a 75 273 43
a 76 77 100
a 76 88 9
a 76 148 23
a 76 255 25
a 77 78 100
a 77 181 25
a 77 219 7
a 78 37 7
a 78 67 25
a 78 79 100
a 78 218 9
a 79 80 100
a 79 98 46
a 80 81 100
a 80 101 20
a 80 187 42
a 80 246 25
a 81 46 4
a 81 82 100
a 81 183 13
a 82 83 100
a 83 84 100
a 83 100 5
a 83 110 15
a 84 85 100
a 84 281 29
a 85 86 100
a 85 198 38
a 86 48 44
a 86 87 100
a 87 88 100
a 87 156 11
a 87 168 21
a 88 89 100
a 88 98 36
a 88 119 12
a 88 192 49
a 89 90 100
a 89 270 7
a 90 2 39
a 90 91 100
a 91 15 23
a 91 89 6
a 91 92 100
a 91 260 36
a 92 29 5
a 92 93 100
a 92 143 43
a 92 213 11
a 93 91 33
a 93 94 100
a 94 17 23
a 94 40 3
a 94 95 100
a 94 235 34
a 95 36 29
a 95 96 100
a 96 97 100
a 96 109 15
a 96 159 30
a 97 98 100
a 97 143 9
a 97 183 26
a 97 186 30
a 98 99 100
a 99 22 5
a 99 100 100
a 99 145 12
a 99 278 9
a 100 88 18
a 100 101 100
a 100 245 33
a 100 264 17
a 101 102 100
a 102 103 100
a 102 234 31
a 103 33 34
a 103 60 31
a 103 93 11
a 103 104 100
a 104 105 100
a 104 121 16
a 104 131 12
a 104 216 10
a 105 106 100
a 105 160 8
a 106 5 19
a 106 107 100
a 106 115 15
a 107 79 32
a 107 108 100
a 107 166 46
a 108 94 32
a 108 109 100
a 108 243 35
a 109 110 100
a 110 111 100
a 110 193 26
a 110 254 31
a 111 109 36
a 111 112 100
a 112 10 4
a 112 113 100
a 112 204 8
a 112 206 10
a 113 1 1
a 113 114 100
a 113 211 28
a 114 79 33
a 114 115 100
a 115 55 17
a 115 116 100
a 115 196 16
a 115 201 44
a 116 56 8
a 116 117 100
a 116 152 41
a 116 203 45
a 117 118 100
a 118 119 100
a 118 212 43
a 119 70 46
a 119 120 100
a 119 222 46
a 120 121 100
a 120 166 47
a 120 281 25
a 121 122 100
a 121 198 49
a 121 245 30
a 121 281 16
a 122 123 100
a 122 177 32
a 122 228 38
a 122 239 13
a 123 124 100
a 123 142 9
a 123 239 43
a 124 125 100
a 124 184 30
a 124 194 27
a 124 200 21
a 125 126 100
a 126 10 35
a 126 127 100
a 126 156 41
a 127 34 25
a 127 128 100
a 127 154 3
a 128 116 32
a 128 124 13
a 128 129 100
a 128 136 8
a 129 6 36
a 129 130 100
a 130 131 100
a 130 135 24
a 130 244 29
a 131 18 4
a 131 67 11
a 131 132 100
a 131 193 30
a 132 133 100
a 132 139 22
a 132 278 37
a 133 101 27
a 133 134 100
a 133 270 38
a 133 286 47
a 134 135 100
a 135 136 100
a 135 285 23
a 136 137 100
a 136 138 39
a 136 230 45
a 136 291 10
a 137 138 100
a 137 229 48
a 138 121 28
a 138 139 100
a 139 140 100
a 139 144 18
a 139 187 10
a 140 141 100
a 140 182 43
a 140 275 11
a 141 142 100
a 142 60 32
a 142 143 100
a 143 18 28
a 143 144 100
a 143 203 30
a 144 73 1
a 144 104 1
a 144 145 100
a 145 52 22
a 145 146 100
a 145 181 38
a 145 267 46
a 146 147 100
a 146 239 32
a 147 47 15
a 147 148 100
a 147 265 18
a 147 270 37
a 148 82 47
a 148 149 100
a 149 150 100
a 150 85 9
a 150 151 100
a 150 187 36
a 150 278 10
a 151 152 100
a 152 53 7
a 152 69 47
a 152 153 100
a 153 154 100
a 154 155 100
a 155 156 100
a 156 157 100
a 156 195 45
a 157 158 100
a 158 22 20
a 158 149 22
a 158 159 100
a 159 74 45
a 159 160 100
a 160 58 2
a 160 130 40
a 160 161 100
a 161 11 26
a 161 61 33
a 161 107 49
a 161 162 100
a 162 99 44
a 162 163 100
a 162 195 17
a 163 164 100
a 164 94 37
a 164 165 100
a 164 205 45
a 164 241 35
a 165 166 100
a 165 243 10
a 166 17 5
a 166 48 12
a 166 167 100
a 167 168 100
a 168 18 44
a 168 169 100
a 168 284 3
a 169 141 13
a 169 170 100
a 169 176 24
a 169 177 9
a 170 68 13
a 170 171 100
a 170 175 36
a 170 278 26
a 171 162 1
a 171 172 100
a 171 280 18
a 172 173 100
a 173 121 16
a 173 174 100
a 173 204 32
a 174 81 35
a 174 175 100
a 175 65 38
a 175 176 100
a 176 177 100
a 176 206 1
a 177 97 33
a 177 159 42
a 177 178 100
a 177 256 30
a 178 77 4
a 178 179 100
a 179 160 41
a 179 180 100
a 179 267 30
a 180 8 1
a 180 108 3
a 180 181 100
a 180 222 17
a 181 88 35
a 181 182 100
a 182 24 10
a 182 146 46
a 182 153 23
a 182 183 100
a 183 184 100
a 184 185 100
a 185 186 100
a 186 184 5
a 186 187 100
a 186 289 43
a 187 188 100
a 188 189 100
a 188 228 39
a 189 190 100
a 190 191 100
a 190 221 37
a 190 277 5
a 191 83 12
a 191 192 100
a 191 243 5
a 191 284 5
a 192 84 9
a 192 193 100
a 192 282 38
a 193 194 100
a 194 131 33
a 194 195 100
a 194 208 23
a 194 254 17
a 195 181 7
a 195 196 100
a 196 197 100
a 197 42 33
a 197 198 100
a 198 199 100
a 199 94 47
a 199 175 11
a 199 200 100
a 199 201 26
a 200 37 2
a 200 64 23
a 200 155 20
a 200 201 100
a 201 202 100
a 202 131 1
a 202 203 100
a 203 26 39
a 203 38 23
a 203 204 100
a 204 15 26
a 204 205 100
a 204 206 45
a 204 261 4
a 205 206 100
a 206 33 20
a 206 179 32
a 206 207 100
a 206 211 27
a 207 208 100
a 207 247 29
a 208 30 40
a 208 67 39
a 208 113 19
a 208 209 100
a 209 210 100
a 209 225 46
a 210 188 25
a 210 191 26
a 210 211 100
a 210 250 36
a 211 202 2
a 211 212 100
a 211 227 30
a 212 213 100
a 213 214 100
a 214 215 100
a 215 56 33
a 215 94 6
a 215 216 100
a 215 254 37
a 216 31 24
a 216 82 10
a 216 87 33
a 216 217 100
a 217 43 15
a 217 67 25
a 217 218 100
a 217 234 46
a 218 70 34
a 218 194 43
a 218 219 100
a 219 220 100
a 219 232 2
a 219 250 40
a 220 186 38
a 220 221 100
a 220 233 14
a 221 222 100
a 222 52 9
a 222 108 22
a 222 114 32
a 222 223 100
a 223 224 100
a 224 225 100
a 224 261 30
a 225 226 100
a 226 82 30
a 226 111 20
a 226 225 20
a 226 227 100
a 227 228 100
a 228 130 44
a 228 142 15
a 228 203 23
a 228 229 100
a 229 230 100
a 230 231 100
a 231 91 7
a 231 225 24
a 231 232 100
a 232 58 43
a 232 233 100
a 233 234 100
a 234 56 1
a 234 235 100
a 235 53 3
a 235 87 40
a 235 196 34
a 235 236 100
a 236 233 6
a 236 237 100
a 236 259 11
a 236 299 27
a 237 140 41
a 237 238 100
a 237 268 35
a 238 59 42
a 238 239 100
a 239 240 100
a 240 98 18
a 240 160 23
a 240 241 100
a 241 163 1
a 241 216 23
a 241 242 100
a 242 58 34
a 242 243 100
a 243 71 33
a 243 244 100
a 244 245 100
a 245 155 21
a 245 246 100
a 246 16 5
a 246 247 100
a 247 55 18
a 247 157 14
a 247 248 100
a 247 264 49
a 248 249 100
a 248 257 34
a 249 116 7
a 249 128 6
a 249 181 48
a 249 250 100
a 250 251 100
a 251 48 40
a 251 94 20
a 251 137 27
a 251 252 100
a 252 27 2
a 252 253 100
a 252 292 47
a 253 254 100
a 254 66 39
a 254 126 10
a 254 255 100
a 254 270 2
a 255 23 23
a 255 123 23
a 255 256 100
a 256 61 40
a 256 251 28
a 256 257 100
a 257 22 48
a 257 143 19
a 257 258 100
a 258 259 100
a 258 280 45
a 259 260 100
a 260 27 41
a 260 261 100
a 260 263 10
a 260 277 46
a 261 57 15
a 261 153 1
a 261 189 13
a 261 262 100
a 262 11 36
a 262 106 43
a 262 263 100
a 263 166 34
a 263 264 100
a 264 130 1
a 264 188 32
a 264 265 100
a 264 299 18
a 265 30 13
a 265 56 36
a 265 241 15
a 265 266 100
a 266 3 35
a 266 267 100
a 267 4 44
a 267 45 46
a 267 54 32
a 267 268 100
a 268 165 8
a 268 262 14
a 268 269 100
a 269 67 6
a 269 136 43
a 269 164 23
a 269 270 100
a 270 57 13
a 270 271 100
a 270 273 19
a 270 287 9
a 271 272 100
a 271 276 31
a 272 185 26
a 272 273 100
a 273 151 35
a 273 274 100
a 274 275 100
a 275 157 44
a 275 186 34
a 275 276 100
a 276 277 100
a 277 218 23
a 277 237 9
a 277 278 100
a 278 101 32
a 278 279 100
a 279 280 100
a 280 281 100
a 281 282 100
a 282 283 100
a 283 64 19
a 283 284 100
a 284 39 1
a 284 44 37
a 284 160 26
a 284 285 100
a 285 286 100
a 286 287 100
a 287 71 21
a 287 270 42
a 287 288 100
a 288 140 47
a 288 144 5
a 288 289 100
a 289 65 14
a 289 135 23
a 289 193 14
a 289 290 100
a 290 176 43
a 290 291 100
a 291 194 49
a 291 292 33
a 292 97 32
a 292 117 26
a 292 223 43
a 292 293 100
a 293 176 5
a 293 286 16
a 293 294 100
a 294 14 39
a 294 156 46
a 294 295 100
a 295 236 7
a 295 296 100
a 296 3 41
a 296 70 30
a 296 297 100
a 297 157 39
a 297 298 100
a 298 299 100
a 299 300 100
a 300 59 2
a 300 88 13
a 300 278 28
